500
    1   485   485
    2    94    94
    3   326   326
    4   506   506
    5   248   248
    6   416   416
    7   421   421
    8   992   992
    9   322   322
   10   649   649
   11   795   795
   12   237   237
   13    43    43
   14   457   457
   15   845   845
   16   815   815
   17   955   955
   18   446   446
   19   252   252
   20   422   422
   21     9     9
   22   791   791
   23   901   901
   24   359   359
   25   122   122
   26   667   667
   27    94    94
   28   598   598
   29   738   738
   30     7     7
   31   574   574
   32   544   544
   33   715   715
   34   334   334
   35   882   882
   36   766   766
   37   367   367
   38   994   994
   39   984   984
   40   893   893
   41   299   299
   42   633   633
   43   433   433
   44   131   131
   45   682   682
   46   428   428
   47    72    72
   48   700   700
   49   874   874
   50   617   617
   51   138   138
   52   874   874
   53   856   856
   54   720   720
   55   145   145
   56   419   419
   57   995   995
   58   794   794
   59   529   529
   60   196   196
   61   199   199
   62   997   997
   63   277   277
   64   116   116
   65    97    97
   66   908   908
   67   719   719
   68   539   539
   69   242   242
   70   707   707
   71   107   107
   72   569   569
   73   122   122
   74   537   537
   75    70    70
   76   931   931
   77    98    98
   78   726   726
   79   600   600
   80   487   487
   81   645   645
   82   772   772
   83   267   267
   84   513   513
   85   972   972
   86    81    81
   87   895   895
   88   943   943
   89   213   213
   90    58    58
   91   748   748
   92   303   303
   93   487   487
   94   764   764
   95   923   923
   96   536   536
   97    29    29
   98   724   724
   99   674   674
  100   789   789
  101   540   540
  102   479   479
  103   554   554
  104   142   142
  105   467   467
  106   339   339
  107    46    46
  108   641   641
  109   710   710
  110   196   196
  111   553   553
  112   494   494
  113   191   191
  114    66    66
  115   724   724
  116   824   824
  117   730   730
  118   208   208
  119   988   988
  120   711   711
  121    90    90
  122   800   800
  123   340   340
  124   314   314
  125   549   549
  126   289   289
  127   196   196
  128   401   401
  129   865   865
  130   466   466
  131   678   678
  132   689   689
  133   570   570
  134   833   833
  135   936   936
  136   225   225
  137   722   722
  138   244   244
  139   651   651
  140   849   849
  141   123   123
  142   113   113
  143   431   431
  144   379   379
  145   508   508
  146   361   361
  147   585   585
  148    65    65
  149   853   853
  150   486   486
  151   642   642
  152   686   686
  153   992   992
  154   286   286
  155   725   725
  156   889   889
  157   286   286
  158    24    24
  159   812   812
  160   491   491
  161   859   859
  162   891   891
  163   663   663
  164    90    90
  165    88    88
  166   181   181
  167   179   179
  168   214   214
  169   187   187
  170    17    17
  171   619   619
  172   472   472
  173   261   261
  174   418   418
  175   846   846
  176   419   419
  177   192   192
  178   356   356
  179   261   261
  180   682   682
  181   514   514
  182   306   306
  183   886   886
  184   201   201
  185   530   530
  186   385   385
  187   849   849
  188   952   952
  189   294   294
  190   500   500
  191   799   799
  192   194   194
  193   391   391
  194   737   737
  195   330   330
  196   324   324
  197   298   298
  198   992   992
  199   790   790
  200   224   224
  201   275   275
  202   260   260
  203   826   826
  204    97    97
  205    72    72
  206   210   210
  207   866   866
  208   649   649
  209   951   951
  210   919   919
  211   748   748
  212    63    63
  213   685   685
  214   958   958
  215   956   956
  216   804   804
  217   564   564
  218   518   518
  219   183   183
  220   428   428
  221   400   400
  222   537   537
  223   721   721
  224   346   346
  225   207   207
  226   153   153
  227   323   323
  228   971   971
  229   611   611
  230   662   662
  231   116   116
  232   197   197
  233   109   109
  234    91    91
  235   795   795
  236   529   529
  237   343   343
  238   126   126
  239   862   862
  240   747   747
  241   685   685
  242   469   469
  243    10    10
  244   770   770
  245   881   881
  246   934   934
  247   984   984
  248   723   723
  249   403   403
  250   895   895
  251   360   360
  252   568   568
  253   449   449
  254   172   172
  255   541   541
  256   958   958
  257   272   272
  258   383   383
  259   877   877
  260   308   308
  261   359   359
  262   970   970
  263   707   707
  264   583   583
  265   308   308
  266    48    48
  267   770   770
  268   930   930
  269    30    30
  270   569   569
  271   208   208
  272     3     3
  273   311   311
  274    20    20
  275   100   100
  276   609   609
  277   939   939
  278   887   887
  279   422   422
  280   825   825
  281   785   785
  282   930   930
  283   370   370
  284   904   904
  285   989   989
  286   241   241
  287   969   969
  288   379   379
  289   143   143
  290   376   376
  291   972   972
  292   962   962
  293    28    28
  294   889   889
  295    61    61
  296   443   443
  297   638   638
  298   216   216
  299   348   348
  300   338   338
  301   347   347
  302   160   160
  303    66    66
  304   406   406
  305   391   391
  306   159   159
  307   638   638
  308    31    31
  309   295   295
  310   204   204
  311   826   826
  312   420   420
  313   196   196
  314   153   153
  315   449   449
  316   425   425
  317   855   855
  318   331   331
  319   143   143
  320   565   565
  321   487   487
  322   838   838
  323   140   140
  324     9     9
  325   564   564
  326   918   918
  327   615   615
  328   533   533
  329   135   135
  330   232   232
  331   564   564
  332   957   957
  333   360   360
  334   591   591
  335   793   793
  336   576   576
  337   163   163
  338   746   746
  339   859   859
  340   377   377
  341   760   760
  342   858   858
  343   711   711
  344    86    86
  345   662   662
  346   434   434
  347   159   159
  348   558   558
  349   660   660
  350   279   279
  351   268   268
  352   840   840
  353   948   948
  354   735   735
  355   315   315
  356   574   574
  357   676   676
  358   126   126
  359   341   341
  360   912   912
  361   689   689
  362   739   739
  363   894   894
  364   821   821
  365   706   706
  366   625   625
  367   490   490
  368   917   917
  369   478   478
  370   201   201
  371   671   671
  372   993   993
  373   932   932
  374   149   149
  375   899   899
  376    52    52
  377   237   237
  378   759   759
  379   187   187
  380   267   267
  381   472   472
  382   256   256
  383   772   772
  384   783   783
  385    98    98
  386   117   117
  387   906   906
  388   516   516
  389   911   911
  390   180   180
  391   635   635
  392    25    25
  393   225   225
  394   380   380
  395   823   823
  396   712   712
  397   164   164
  398   266   266
  399   343   343
  400   216   216
  401   732   732
  402   448   448
  403   502   502
  404   541   541
  405   740   740
  406   664   664
  407   576   576
  408   954   954
  409   612   612
  410   726   726
  411   902   902
  412   772   772
  413   454   454
  414   531   531
  415   411   411
  416   943   943
  417   973   973
  418   750   750
  419   703   703
  420   327   327
  421   850   850
  422   917   917
  423    77    77
  424     5     5
  425   220   220
  426   113   113
  427   802   802
  428   913   913
  429   403   403
  430   791   791
  431   181   181
  432   998   998
  433    10    10
  434   859   859
  435   525   525
  436   345   345
  437   919   919
  438   431   431
  439   668   668
  440   675   675
  441   527   527
  442   833   833
  443   462   462
  444   438   438
  445   291   291
  446   523   523
  447   605   605
  448   916   916
  449   457   457
  450   420   420
  451   405   405
  452   115   115
  453   417   417
  454   660   660
  455   279   279
  456   261   261
  457   685   685
  458   772   772
  459   596   596
  460   388   388
  461   307   307
  462   764   764
  463   224   224
  464   843   843
  465   322   322
  466   206   206
  467   840   840
  468   407   407
  469   975   975
  470   639   639
  471   401   401
  472   852   852
  473    91    91
  474   542   542
  475   327   327
  476    60    60
  477   330   330
  478   757   757
  479   182   182
  480    82    82
  481   603   603
  482   637   637
  483   793   793
  484    93    93
  485   615   615
  486   614   614
  487   733   733
  488   136   136
  489   864   864
  490   187   187
  491    16    16
  492   102   102
  493   863   863
  494   972   972
  495   987   987
  496   163   163
  497   306   306
  498   501   501
  499    34    34
  500   477   477
42384
